; --full-saturate-quant --inst-when=full-last-call --inst-no-entail --term-db-mode=relevant --random-seed=1 --lang=smt2 --tlimit 599
;(set-option :produce-unsat-cores true)
(set-logic ALL_SUPPORTED)
(declare-sort A$ 0)
(declare-sort Nat$ 0)
(declare-sort A_set$ 0)
(declare-datatypes () ((A_tree$ (leaf$ (select$ Nat$) (selecta$ A$)) (innerNode$ (selectb$ Nat$) (selectc$ A_tree$) (selectd$ A_tree$)))
  (A_tree_list$ (nil$) (cons$ (hd$ A_tree$) (tl$ A_tree_list$)))))
(declare-fun a$ () A$)
(declare-fun b$ () A$)
(declare-fun t$ () A_tree$)
(declare-fun ts$ () A_tree_list$)
(declare-fun sup$ (A_set$ A_set$) A_set$)
(declare-fun w_a$ () Nat$)
(declare-fun w_b$ () Nat$)
(declare-fun freq$ (A_tree$ A$) Nat$)
(declare-fun plus$ (Nat$ Nat$) Nat$)
(declare-fun zero$ () Nat$)
(declare-fun freq_F$ (A_tree_list$ A$) Nat$)
(declare-fun member$ (A$ A_set$) Bool)
(declare-fun alphabet$ (A_tree$) A_set$)
(declare-fun alphabet_F$ (A_tree_list$) A_set$)
(declare-fun insortTree$ (A_tree$ A_tree_list$) A_tree_list$)
(declare-fun splitLeaf_F$ (A_tree_list$ Nat$ A$ Nat$ A$) A_tree_list$)
(declare-fun consistent_F$ (A_tree_list$) Bool)
(declare-fun swapFourSyms$ (A_tree$ A$ A$ A$ A$) A_tree$)
(assert (! (not (= (splitLeaf_F$ (insortTree$ t$ ts$) w_a$ a$ w_b$ b$) (insortTree$ t$ (splitLeaf_F$ ts$ w_a$ a$ w_b$ b$)))) :named a0))
(assert (! (member$ a$ (alphabet_F$ ts$)) :named a1))
(assert (! (consistent_F$ ts$) :named a2))
(assert (! (not (member$ a$ (alphabet$ t$))) :named a3))
(assert (! (= (freq_F$ ts$ a$) (plus$ w_a$ w_b$)) :named a4))
(assert (! (forall ((?v0 A$) (?v1 A_tree_list$) (?v2 Nat$) (?v3 Nat$) (?v4 A$)) (! (=> (not (member$ ?v0 (alphabet_F$ ?v1))) (= (splitLeaf_F$ ?v1 ?v2 ?v0 ?v3 ?v4) ?v1)) :pattern ((splitLeaf_F$ ?v1 ?v2 ?v0 ?v3 ?v4)))) :named a5))
(assert (! (forall ((?v0 A_tree$)) (exists ((?v1 A$)) (member$ ?v1 (alphabet$ ?v0)))) :named a6))
(assert (! (forall ((?v0 Nat$) (?v1 Nat$) (?v2 Nat$)) (= (= (plus$ ?v0 ?v1) (plus$ ?v2 ?v1)) (= ?v0 ?v2))) :named a7))
(assert (! (forall ((?v0 Nat$) (?v1 Nat$) (?v2 Nat$)) (= (= (plus$ ?v0 ?v1) (plus$ ?v0 ?v2)) (= ?v1 ?v2))) :named a8))
(assert (! (forall ((?v0 A_tree$) (?v1 A_tree_list$) (?v2 A$)) (= (freq_F$ (insortTree$ ?v0 ?v1) ?v2) (plus$ (freq$ ?v0 ?v2) (freq_F$ ?v1 ?v2)))) :named a9))
(assert (! (forall ((?v0 A$) (?v1 A_tree$) (?v2 A$) (?v3 A$) (?v4 A$)) (=> (and (member$ ?v0 (alphabet$ ?v1)) (and (member$ ?v2 (alphabet$ ?v1)) (and (member$ ?v3 (alphabet$ ?v1)) (member$ ?v4 (alphabet$ ?v1))))) (= (alphabet$ (swapFourSyms$ ?v1 ?v0 ?v2 ?v3 ?v4)) (alphabet$ ?v1)))) :named a10))
(assert (! (forall ((?v0 A_tree$) (?v1 A_tree_list$)) (= (alphabet_F$ (insortTree$ ?v0 ?v1)) (sup$ (alphabet$ ?v0) (alphabet_F$ ?v1)))) :named a11))
(assert (! (forall ((?v0 A$) (?v1 A_tree_list$)) (! (=> (not (member$ ?v0 (alphabet_F$ ?v1))) (= (freq_F$ ?v1 ?v0) zero$)) :pattern ((freq_F$ ?v1 ?v0)))) :named a12))
(assert (! (forall ((?v0 A_tree$) (?v1 A_tree_list$)) (= (consistent_F$ (insortTree$ ?v0 ?v1)) (consistent_F$ (cons$ ?v0 ?v1)))) :named a13))
(assert (! (forall ((?v0 Nat$) (?v1 Nat$) (?v2 Nat$)) (= (= (plus$ ?v0 ?v1) (plus$ ?v2 ?v1)) (= ?v0 ?v2))) :named a14))
(assert (! (forall ((?v0 Nat$) (?v1 Nat$) (?v2 Nat$)) (= (= (plus$ ?v0 ?v1) (plus$ ?v0 ?v2)) (= ?v1 ?v2))) :named a15))
(assert (! (forall ((?v0 Nat$) (?v1 Nat$) (?v2 Nat$) (?v3 Nat$)) (= (plus$ (plus$ ?v0 ?v1) (plus$ ?v2 ?v3)) (plus$ (plus$ ?v0 ?v2) (plus$ ?v1 ?v3)))) :named a16))
(assert (! (forall ((?v0 Nat$) (?v1 Nat$) (?v2 Nat$)) (= (plus$ (plus$ ?v0 ?v1) ?v2) (plus$ (plus$ ?v0 ?v2) ?v1))) :named a17))
(assert (! (forall ((?v0 Nat$) (?v1 Nat$) (?v2 Nat$)) (= (plus$ (plus$ ?v0 ?v1) ?v2) (plus$ ?v0 (plus$ ?v1 ?v2)))) :named a18))
(assert (! (forall ((?v0 Nat$)) (= (plus$ zero$ ?v0) ?v0)) :named a19))
(assert (! (forall ((?v0 Nat$)) (= (plus$ zero$ ?v0) ?v0)) :named a20))
(check-sat)
;(get-unsat-core)
